\* Problem: IPL_linearized_N8q80 *\

Minimize
 obj: + 0.0334321569376995 y(1,1) + 0.0285014623820362 y(1,2)
 + 0.027151960360201 y(1,3) + 0.0282782125911624 y(1,4)
 + 0.0243947003514401 y(1,5) + 0.0266204136297367 y(1,6)
 + 0.0279200750029494 y(1,7) + 0.03266101441853 y(1,8)
 + 0.0285014623820362 y(2,1) + 0.0279183917233642 y(2,2)
 + 0.0251261923585265 y(2,3) + 0.0242938394679207 y(2,4)
 + 0.0205717322344201 y(2,5) + 0.0221749411805118 y(2,6)
 + 0.0247020441219731 y(2,7) + 0.0276305304651141 y(2,8)
 + 0.027151960360201 y(3,1) + 0.0251261923585265 y(3,2)
 + 0.0242414975651765 y(3,3) + 0.0230891156893274 y(3,4)
 + 0.0202969197958434 y(3,5) + 0.0218784587071921 y(3,6)
 + 0.0234746666485769 y(3,7) + 0.0276694283911821 y(3,8)
 + 0.0282782125911624 y(4,1) + 0.0242938394679207 y(4,2)
 + 0.0230891156893274 y(4,3) + 0.0255042280411584 y(4,4)
 + 0.0211709791552306 y(4,5) + 0.0227982758905564 y(4,6)
 + 0.0240630594371501 y(4,7) + 0.026862906883832 y(4,8)
 + 0.0243947003514401 y(5,1) + 0.0205717322344201 y(5,2)
 + 0.0202969197958434 y(5,3) + 0.0211709791552306 y(5,4)
 + 0.02123283884186 y(5,5) + 0.0224170432358449 y(5,6)
 + 0.020524908086669 y(5,7) + 0.0254124886833039 y(5,8)
 + 0.0266204136297367 y(6,1) + 0.0221749411805118 y(6,2)
 + 0.0218784587071921 y(6,3) + 0.0227982758905564 y(6,4)
 + 0.0224170432358449 y(6,5) + 0.0244738740604454 y(6,6)
 + 0.0217844695072377 y(6,7) + 0.0275317819430466 y(6,8)
 + 0.0279200750029494 y(7,1) + 0.0247020441219731 y(7,2)
 + 0.0234746666485769 y(7,3) + 0.0240630594371501 y(7,4)
 + 0.020524908086669 y(7,5) + 0.0217844695072377 y(7,6)
 + 0.0273194028238672 y(7,7) + 0.0285776638532081 y(7,8)
 + 0.03266101441853 y(8,1) + 0.0276305304651141 y(8,2)
 + 0.0276694283911821 y(8,3) + 0.026862906883832 y(8,4)
 + 0.0254124886833039 y(8,5) + 0.0275317819430466 y(8,6)
 + 0.0285776638532081 y(8,7) + 0.0368924144546632 y(8,8)
 - 0.00493050816941095 x(1) - 0.00490472021267984 x(2)
 - 0.0049991881091159 x(3) - 0.00580476967363632 x(4)
 - 0.00313721804173821 x(5) - 0.00316234124770833 x(6)
 - 0.0039347307922897 x(7) - 0.0031187302952406 x(8)

Subject To
 card0: + x(1) + x(2) + x(3) + x(4) + x(5) + x(6) + x(7) + x(8) = 4
 card1(1,1): + y(1,1) - x(1) <= -0
 card1(1,2): + y(1,2) - x(1) <= -0
 card1(1,3): + y(1,3) - x(1) <= -0
 card1(1,4): + y(1,4) - x(1) <= -0
 card1(1,5): + y(1,5) - x(1) <= -0
 card1(1,6): + y(1,6) - x(1) <= -0
 card1(1,7): + y(1,7) - x(1) <= -0
 card1(1,8): + y(1,8) - x(1) <= -0
 card1(2,1): + y(2,1) - x(2) <= -0
 card1(2,2): + y(2,2) - x(2) <= -0
 card1(2,3): + y(2,3) - x(2) <= -0
 card1(2,4): + y(2,4) - x(2) <= -0
 card1(2,5): + y(2,5) - x(2) <= -0
 card1(2,6): + y(2,6) - x(2) <= -0
 card1(2,7): + y(2,7) - x(2) <= -0
 card1(2,8): + y(2,8) - x(2) <= -0
 card1(3,1): + y(3,1) - x(3) <= -0
 card1(3,2): + y(3,2) - x(3) <= -0
 card1(3,3): + y(3,3) - x(3) <= -0
 card1(3,4): + y(3,4) - x(3) <= -0
 card1(3,5): + y(3,5) - x(3) <= -0
 card1(3,6): + y(3,6) - x(3) <= -0
 card1(3,7): + y(3,7) - x(3) <= -0
 card1(3,8): + y(3,8) - x(3) <= -0
 card1(4,1): + y(4,1) - x(4) <= -0
 card1(4,2): + y(4,2) - x(4) <= -0
 card1(4,3): + y(4,3) - x(4) <= -0
 card1(4,4): + y(4,4) - x(4) <= -0
 card1(4,5): + y(4,5) - x(4) <= -0
 card1(4,6): + y(4,6) - x(4) <= -0
 card1(4,7): + y(4,7) - x(4) <= -0
 card1(4,8): + y(4,8) - x(4) <= -0
 card1(5,1): + y(5,1) - x(5) <= -0
 card1(5,2): + y(5,2) - x(5) <= -0
 card1(5,3): + y(5,3) - x(5) <= -0
 card1(5,4): + y(5,4) - x(5) <= -0
 card1(5,5): + y(5,5) - x(5) <= -0
 card1(5,6): + y(5,6) - x(5) <= -0
 card1(5,7): + y(5,7) - x(5) <= -0
 card1(5,8): + y(5,8) - x(5) <= -0
 card1(6,1): + y(6,1) - x(6) <= -0
 card1(6,2): + y(6,2) - x(6) <= -0
 card1(6,3): + y(6,3) - x(6) <= -0
 card1(6,4): + y(6,4) - x(6) <= -0
 card1(6,5): + y(6,5) - x(6) <= -0
 card1(6,6): + y(6,6) - x(6) <= -0
 card1(6,7): + y(6,7) - x(6) <= -0
 card1(6,8): + y(6,8) - x(6) <= -0
 card1(7,1): + y(7,1) - x(7) <= -0
 card1(7,2): + y(7,2) - x(7) <= -0
 card1(7,3): + y(7,3) - x(7) <= -0
 card1(7,4): + y(7,4) - x(7) <= -0
 card1(7,5): + y(7,5) - x(7) <= -0
 card1(7,6): + y(7,6) - x(7) <= -0
 card1(7,7): + y(7,7) - x(7) <= -0
 card1(7,8): + y(7,8) - x(7) <= -0
 card1(8,1): + y(8,1) - x(8) <= -0
 card1(8,2): + y(8,2) - x(8) <= -0
 card1(8,3): + y(8,3) - x(8) <= -0
 card1(8,4): + y(8,4) - x(8) <= -0
 card1(8,5): + y(8,5) - x(8) <= -0
 card1(8,6): + y(8,6) - x(8) <= -0
 card1(8,7): + y(8,7) - x(8) <= -0
 card1(8,8): + y(8,8) - x(8) <= -0
 card2(1,1): + y(1,1) - x(1) <= -0
 card2(1,2): + y(1,2) - x(2) <= -0
 card2(1,3): + y(1,3) - x(3) <= -0
 card2(1,4): + y(1,4) - x(4) <= -0
 card2(1,5): + y(1,5) - x(5) <= -0
 card2(1,6): + y(1,6) - x(6) <= -0
 card2(1,7): + y(1,7) - x(7) <= -0
 card2(1,8): + y(1,8) - x(8) <= -0
 card2(2,1): + y(2,1) - x(1) <= -0
 card2(2,2): + y(2,2) - x(2) <= -0
 card2(2,3): + y(2,3) - x(3) <= -0
 card2(2,4): + y(2,4) - x(4) <= -0
 card2(2,5): + y(2,5) - x(5) <= -0
 card2(2,6): + y(2,6) - x(6) <= -0
 card2(2,7): + y(2,7) - x(7) <= -0
 card2(2,8): + y(2,8) - x(8) <= -0
 card2(3,1): + y(3,1) - x(1) <= -0
 card2(3,2): + y(3,2) - x(2) <= -0
 card2(3,3): + y(3,3) - x(3) <= -0
 card2(3,4): + y(3,4) - x(4) <= -0
 card2(3,5): + y(3,5) - x(5) <= -0
 card2(3,6): + y(3,6) - x(6) <= -0
 card2(3,7): + y(3,7) - x(7) <= -0
 card2(3,8): + y(3,8) - x(8) <= -0
 card2(4,1): + y(4,1) - x(1) <= -0
 card2(4,2): + y(4,2) - x(2) <= -0
 card2(4,3): + y(4,3) - x(3) <= -0
 card2(4,4): + y(4,4) - x(4) <= -0
 card2(4,5): + y(4,5) - x(5) <= -0
 card2(4,6): + y(4,6) - x(6) <= -0
 card2(4,7): + y(4,7) - x(7) <= -0
 card2(4,8): + y(4,8) - x(8) <= -0
 card2(5,1): + y(5,1) - x(1) <= -0
 card2(5,2): + y(5,2) - x(2) <= -0
 card2(5,3): + y(5,3) - x(3) <= -0
 card2(5,4): + y(5,4) - x(4) <= -0
 card2(5,5): + y(5,5) - x(5) <= -0
 card2(5,6): + y(5,6) - x(6) <= -0
 card2(5,7): + y(5,7) - x(7) <= -0
 card2(5,8): + y(5,8) - x(8) <= -0
 card2(6,1): + y(6,1) - x(1) <= -0
 card2(6,2): + y(6,2) - x(2) <= -0
 card2(6,3): + y(6,3) - x(3) <= -0
 card2(6,4): + y(6,4) - x(4) <= -0
 card2(6,5): + y(6,5) - x(5) <= -0
 card2(6,6): + y(6,6) - x(6) <= -0
 card2(6,7): + y(6,7) - x(7) <= -0
 card2(6,8): + y(6,8) - x(8) <= -0
 card2(7,1): + y(7,1) - x(1) <= -0
 card2(7,2): + y(7,2) - x(2) <= -0
 card2(7,3): + y(7,3) - x(3) <= -0
 card2(7,4): + y(7,4) - x(4) <= -0
 card2(7,5): + y(7,5) - x(5) <= -0
 card2(7,6): + y(7,6) - x(6) <= -0
 card2(7,7): + y(7,7) - x(7) <= -0
 card2(7,8): + y(7,8) - x(8) <= -0
 card2(8,1): + y(8,1) - x(1) <= -0
 card2(8,2): + y(8,2) - x(2) <= -0
 card2(8,3): + y(8,3) - x(3) <= -0
 card2(8,4): + y(8,4) - x(4) <= -0
 card2(8,5): + y(8,5) - x(5) <= -0
 card2(8,6): + y(8,6) - x(6) <= -0
 card2(8,7): + y(8,7) - x(7) <= -0
 card2(8,8): + y(8,8) - x(8) <= -0
 card3(1,1): + y(1,1) - 2 x(1) >= -1
 card3(1,2): + y(1,2) - x(1) - x(2) >= -1
 card3(1,3): + y(1,3) - x(1) - x(3) >= -1
 card3(1,4): + y(1,4) - x(1) - x(4) >= -1
 card3(1,5): + y(1,5) - x(1) - x(5) >= -1
 card3(1,6): + y(1,6) - x(1) - x(6) >= -1
 card3(1,7): + y(1,7) - x(1) - x(7) >= -1
 card3(1,8): + y(1,8) - x(1) - x(8) >= -1
 card3(2,1): + y(2,1) - x(1) - x(2) >= -1
 card3(2,2): + y(2,2) - 2 x(2) >= -1
 card3(2,3): + y(2,3) - x(2) - x(3) >= -1
 card3(2,4): + y(2,4) - x(2) - x(4) >= -1
 card3(2,5): + y(2,5) - x(2) - x(5) >= -1
 card3(2,6): + y(2,6) - x(2) - x(6) >= -1
 card3(2,7): + y(2,7) - x(2) - x(7) >= -1
 card3(2,8): + y(2,8) - x(2) - x(8) >= -1
 card3(3,1): + y(3,1) - x(1) - x(3) >= -1
 card3(3,2): + y(3,2) - x(2) - x(3) >= -1
 card3(3,3): + y(3,3) - 2 x(3) >= -1
 card3(3,4): + y(3,4) - x(3) - x(4) >= -1
 card3(3,5): + y(3,5) - x(3) - x(5) >= -1
 card3(3,6): + y(3,6) - x(3) - x(6) >= -1
 card3(3,7): + y(3,7) - x(3) - x(7) >= -1
 card3(3,8): + y(3,8) - x(3) - x(8) >= -1
 card3(4,1): + y(4,1) - x(1) - x(4) >= -1
 card3(4,2): + y(4,2) - x(2) - x(4) >= -1
 card3(4,3): + y(4,3) - x(3) - x(4) >= -1
 card3(4,4): + y(4,4) - 2 x(4) >= -1
 card3(4,5): + y(4,5) - x(4) - x(5) >= -1
 card3(4,6): + y(4,6) - x(4) - x(6) >= -1
 card3(4,7): + y(4,7) - x(4) - x(7) >= -1
 card3(4,8): + y(4,8) - x(4) - x(8) >= -1
 card3(5,1): + y(5,1) - x(1) - x(5) >= -1
 card3(5,2): + y(5,2) - x(2) - x(5) >= -1
 card3(5,3): + y(5,3) - x(3) - x(5) >= -1
 card3(5,4): + y(5,4) - x(4) - x(5) >= -1
 card3(5,5): + y(5,5) - 2 x(5) >= -1
 card3(5,6): + y(5,6) - x(5) - x(6) >= -1
 card3(5,7): + y(5,7) - x(5) - x(7) >= -1
 card3(5,8): + y(5,8) - x(5) - x(8) >= -1
 card3(6,1): + y(6,1) - x(1) - x(6) >= -1
 card3(6,2): + y(6,2) - x(2) - x(6) >= -1
 card3(6,3): + y(6,3) - x(3) - x(6) >= -1
 card3(6,4): + y(6,4) - x(4) - x(6) >= -1
 card3(6,5): + y(6,5) - x(5) - x(6) >= -1
 card3(6,6): + y(6,6) - 2 x(6) >= -1
 card3(6,7): + y(6,7) - x(6) - x(7) >= -1
 card3(6,8): + y(6,8) - x(6) - x(8) >= -1
 card3(7,1): + y(7,1) - x(1) - x(7) >= -1
 card3(7,2): + y(7,2) - x(2) - x(7) >= -1
 card3(7,3): + y(7,3) - x(3) - x(7) >= -1
 card3(7,4): + y(7,4) - x(4) - x(7) >= -1
 card3(7,5): + y(7,5) - x(5) - x(7) >= -1
 card3(7,6): + y(7,6) - x(6) - x(7) >= -1
 card3(7,7): + y(7,7) - 2 x(7) >= -1
 card3(7,8): + y(7,8) - x(7) - x(8) >= -1
 card3(8,1): + y(8,1) - x(1) - x(8) >= -1
 card3(8,2): + y(8,2) - x(2) - x(8) >= -1
 card3(8,3): + y(8,3) - x(3) - x(8) >= -1
 card3(8,4): + y(8,4) - x(4) - x(8) >= -1
 card3(8,5): + y(8,5) - x(5) - x(8) >= -1
 card3(8,6): + y(8,6) - x(6) - x(8) >= -1
 card3(8,7): + y(8,7) - x(7) - x(8) >= -1
 card3(8,8): + y(8,8) - 2 x(8) >= -1

Bounds
 0 <= y(1,1) <= 1
 0 <= y(1,2) <= 1
 0 <= y(1,3) <= 1
 0 <= y(1,4) <= 1
 0 <= y(1,5) <= 1
 0 <= y(1,6) <= 1
 0 <= y(1,7) <= 1
 0 <= y(1,8) <= 1
 0 <= y(2,1) <= 1
 0 <= y(2,2) <= 1
 0 <= y(2,3) <= 1
 0 <= y(2,4) <= 1
 0 <= y(2,5) <= 1
 0 <= y(2,6) <= 1
 0 <= y(2,7) <= 1
 0 <= y(2,8) <= 1
 0 <= y(3,1) <= 1
 0 <= y(3,2) <= 1
 0 <= y(3,3) <= 1
 0 <= y(3,4) <= 1
 0 <= y(3,5) <= 1
 0 <= y(3,6) <= 1
 0 <= y(3,7) <= 1
 0 <= y(3,8) <= 1
 0 <= y(4,1) <= 1
 0 <= y(4,2) <= 1
 0 <= y(4,3) <= 1
 0 <= y(4,4) <= 1
 0 <= y(4,5) <= 1
 0 <= y(4,6) <= 1
 0 <= y(4,7) <= 1
 0 <= y(4,8) <= 1
 0 <= y(5,1) <= 1
 0 <= y(5,2) <= 1
 0 <= y(5,3) <= 1
 0 <= y(5,4) <= 1
 0 <= y(5,5) <= 1
 0 <= y(5,6) <= 1
 0 <= y(5,7) <= 1
 0 <= y(5,8) <= 1
 0 <= y(6,1) <= 1
 0 <= y(6,2) <= 1
 0 <= y(6,3) <= 1
 0 <= y(6,4) <= 1
 0 <= y(6,5) <= 1
 0 <= y(6,6) <= 1
 0 <= y(6,7) <= 1
 0 <= y(6,8) <= 1
 0 <= y(7,1) <= 1
 0 <= y(7,2) <= 1
 0 <= y(7,3) <= 1
 0 <= y(7,4) <= 1
 0 <= y(7,5) <= 1
 0 <= y(7,6) <= 1
 0 <= y(7,7) <= 1
 0 <= y(7,8) <= 1
 0 <= y(8,1) <= 1
 0 <= y(8,2) <= 1
 0 <= y(8,3) <= 1
 0 <= y(8,4) <= 1
 0 <= y(8,5) <= 1
 0 <= y(8,6) <= 1
 0 <= y(8,7) <= 1
 0 <= y(8,8) <= 1
 0 <= x(1) <= 1
 0 <= x(2) <= 1
 0 <= x(3) <= 1
 0 <= x(4) <= 1
 0 <= x(5) <= 1
 0 <= x(6) <= 1
 0 <= x(7) <= 1
 0 <= x(8) <= 1

Generals
 y(1,1)
 y(1,2)
 y(1,3)
 y(1,4)
 y(1,5)
 y(1,6)
 y(1,7)
 y(1,8)
 y(2,1)
 y(2,2)
 y(2,3)
 y(2,4)
 y(2,5)
 y(2,6)
 y(2,7)
 y(2,8)
 y(3,1)
 y(3,2)
 y(3,3)
 y(3,4)
 y(3,5)
 y(3,6)
 y(3,7)
 y(3,8)
 y(4,1)
 y(4,2)
 y(4,3)
 y(4,4)
 y(4,5)
 y(4,6)
 y(4,7)
 y(4,8)
 y(5,1)
 y(5,2)
 y(5,3)
 y(5,4)
 y(5,5)
 y(5,6)
 y(5,7)
 y(5,8)
 y(6,1)
 y(6,2)
 y(6,3)
 y(6,4)
 y(6,5)
 y(6,6)
 y(6,7)
 y(6,8)
 y(7,1)
 y(7,2)
 y(7,3)
 y(7,4)
 y(7,5)
 y(7,6)
 y(7,7)
 y(7,8)
 y(8,1)
 y(8,2)
 y(8,3)
 y(8,4)
 y(8,5)
 y(8,6)
 y(8,7)
 y(8,8)
 x(1)
 x(2)
 x(3)
 x(4)
 x(5)
 x(6)
 x(7)
 x(8)

End
